(set-logic QF_BV)

(declare-const __ESBMC_ptr_obj_start_0 (_ BitVec 64))

(declare-const __ESBMC_ptr_obj_end_0 (_ BitVec 64))

(declare-const __ESBMC_ptr_obj_start_1 (_ BitVec 64))

(declare-const __ESBMC_ptr_obj_end_1 (_ BitVec 64))

(declare-const |smt_conv::__ESBMC_ptr_addr_range_0..start0| (_ BitVec 64))

(declare-const |smt_conv::__ESBMC_ptr_addr_range_0..end0| (_ BitVec 64))

(declare-const |smt_conv::__ESBMC_ptr_addr_range_1..start0| (_ BitVec 64))

(declare-const |smt_conv::__ESBMC_ptr_addr_range_1..end0| (_ BitVec 64))

(declare-const |smt_conv::smt_conv::collate_array_vals::3..start0| (_ BitVec 64))

(declare-const |smt_conv::smt_conv::collate_array_vals::3..end0| (_ BitVec 64))

(declare-const |smt_conv::smt_conv::collate_array_vals::4..start0| (_ BitVec 64))

(declare-const |smt_conv::smt_conv::collate_array_vals::4..end0| (_ BitVec 64))

(declare-const |smt_conv::smt_conv::collate_array_vals::7..start0| (_ BitVec 64))

(declare-const |smt_conv::smt_conv::collate_array_vals::7..end0| (_ BitVec 64))

(declare-const |c:jm2006.c.i.v+cfa-reducer.c@471@F@main@main__i?1!0&0#1| (_ BitVec 32))

(declare-const |nondet$symex::nondet254| (_ BitVec 32))

(declare-const |c:jm2006.c.i.v+cfa-reducer.c@485@F@main@main__j?1!0&0#1| (_ BitVec 32))

(declare-const |nondet$symex::nondet255| (_ BitVec 32))

(declare-const |goto_symex::guard?0!0&0#1| (_ BitVec 1))

(declare-const |goto_symex::guard?0!0&0#2| (_ BitVec 1))

(declare-const |c:jm2006.c.i.v+cfa-reducer.c@693@F@main@main__x?1!0&0#1| (_ BitVec 32))

(declare-const |c:jm2006.c.i.v+cfa-reducer.c@717@F@main@main__y?1!0&0#1| (_ BitVec 32))

(declare-const |goto_symex::guard?0!0&0#3| (_ BitVec 1))

(declare-const |c:jm2006.c.i.v+cfa-reducer.c@693@F@main@main__x?1!0&0#2| (_ BitVec 32))

(declare-const |c:jm2006.c.i.v+cfa-reducer.c@717@F@main@main__y?1!0&0#2| (_ BitVec 32))

(declare-const |goto_symex::guard?0!0&0#4| (_ BitVec 1))

(declare-const |c:jm2006.c.i.v+cfa-reducer.c@693@F@main@main__x?1!0&0#3| (_ BitVec 32))

(declare-const |c:jm2006.c.i.v+cfa-reducer.c@717@F@main@main__y?1!0&0#3| (_ BitVec 32))

(declare-const |goto_symex::guard?0!0&0#5| (_ BitVec 1))

(declare-const |c:jm2006.c.i.v+cfa-reducer.c@693@F@main@main__x?1!0&0#4| (_ BitVec 32))

(declare-const |c:jm2006.c.i.v+cfa-reducer.c@717@F@main@main__y?1!0&0#4| (_ BitVec 32))

(declare-const |goto_symex::guard?0!0&0#6| (_ BitVec 1))

(declare-const |c:jm2006.c.i.v+cfa-reducer.c@693@F@main@main__x?1!0&0#5| (_ BitVec 32))

(declare-const |c:jm2006.c.i.v+cfa-reducer.c@717@F@main@main__y?1!0&0#5| (_ BitVec 32))

(declare-const |goto_symex::guard?0!0&0#7| (_ BitVec 1))

(declare-const |c:jm2006.c.i.v+cfa-reducer.c@693@F@main@main__x?1!0&0#6| (_ BitVec 32))

(declare-const |c:jm2006.c.i.v+cfa-reducer.c@717@F@main@main__y?1!0&0#6| (_ BitVec 32))

(declare-const |goto_symex::guard?0!0&0#8| (_ BitVec 1))

(declare-const |c:jm2006.c.i.v+cfa-reducer.c@693@F@main@main__x?1!0&0#7| (_ BitVec 32))

(declare-const |c:jm2006.c.i.v+cfa-reducer.c@717@F@main@main__y?1!0&0#7| (_ BitVec 32))

(declare-const |goto_symex::guard?0!0&0#9| (_ BitVec 1))

(declare-const |c:jm2006.c.i.v+cfa-reducer.c@693@F@main@main__x?1!0&0#8| (_ BitVec 32))

(declare-const |c:jm2006.c.i.v+cfa-reducer.c@717@F@main@main__y?1!0&0#8| (_ BitVec 32))

(declare-const |goto_symex::guard?0!0&0#10| (_ BitVec 1))

(declare-const |c:jm2006.c.i.v+cfa-reducer.c@693@F@main@main__x?1!0&0#9| (_ BitVec 32))

(declare-const |c:jm2006.c.i.v+cfa-reducer.c@717@F@main@main__y?1!0&0#9| (_ BitVec 32))

(declare-const |goto_symex::guard?0!0&0#11| (_ BitVec 1))

(declare-const |c:jm2006.c.i.v+cfa-reducer.c@693@F@main@main__x?1!0&0#10| (_ BitVec 32))

(declare-const |c:jm2006.c.i.v+cfa-reducer.c@717@F@main@main__y?1!0&0#10| (_ BitVec 32))

(declare-const |goto_symex::guard?0!0&0#12| (_ BitVec 1))

(declare-const |c:jm2006.c.i.v+cfa-reducer.c@693@F@main@main__x?1!0&0#11| (_ BitVec 32))

(declare-const |c:jm2006.c.i.v+cfa-reducer.c@717@F@main@main__y?1!0&0#11| (_ BitVec 32))

(declare-const |goto_symex::guard?0!0&0#13| (_ BitVec 1))

(declare-const |c:jm2006.c.i.v+cfa-reducer.c@693@F@main@main__x?1!0&0#12| (_ BitVec 32))

(declare-const |c:jm2006.c.i.v+cfa-reducer.c@717@F@main@main__y?1!0&0#12| (_ BitVec 32))

(declare-const |goto_symex::guard?0!0&0#14| (_ BitVec 1))

(declare-const |c:jm2006.c.i.v+cfa-reducer.c@693@F@main@main__x?1!0&0#13| (_ BitVec 32))

(declare-const |c:jm2006.c.i.v+cfa-reducer.c@717@F@main@main__y?1!0&0#13| (_ BitVec 32))

(declare-const |goto_symex::guard?0!0&0#15| (_ BitVec 1))

(declare-const |c:jm2006.c.i.v+cfa-reducer.c@693@F@main@main__x?1!0&0#14| (_ BitVec 32))

(declare-const |c:jm2006.c.i.v+cfa-reducer.c@717@F@main@main__y?1!0&0#14| (_ BitVec 32))

(declare-const |goto_symex::guard?0!0&0#16| (_ BitVec 1))

(declare-const |c:jm2006.c.i.v+cfa-reducer.c@693@F@main@main__x?1!0&0#15| (_ BitVec 32))

(declare-const |c:jm2006.c.i.v+cfa-reducer.c@717@F@main@main__y?1!0&0#15| (_ BitVec 32))

(declare-const |goto_symex::guard?0!0&0#17| (_ BitVec 1))

(declare-const |c:jm2006.c.i.v+cfa-reducer.c@693@F@main@main__x?1!0&0#16| (_ BitVec 32))

(declare-const |c:jm2006.c.i.v+cfa-reducer.c@717@F@main@main__y?1!0&0#16| (_ BitVec 32))

(declare-const |goto_symex::guard?0!0&0#18| (_ BitVec 1))

(declare-const |c:jm2006.c.i.v+cfa-reducer.c@693@F@main@main__x?1!0&0#17| (_ BitVec 32))

(declare-const |c:jm2006.c.i.v+cfa-reducer.c@717@F@main@main__y?1!0&0#17| (_ BitVec 32))

(declare-const |goto_symex::guard?0!0&0#19| (_ BitVec 1))

(declare-const |c:jm2006.c.i.v+cfa-reducer.c@693@F@main@main__x?1!0&0#18| (_ BitVec 32))

(declare-const |c:jm2006.c.i.v+cfa-reducer.c@717@F@main@main__y?1!0&0#18| (_ BitVec 32))

(declare-const |goto_symex::guard?0!0&0#20| (_ BitVec 1))

(declare-const |c:jm2006.c.i.v+cfa-reducer.c@693@F@main@main__x?1!0&0#19| (_ BitVec 32))

(declare-const |c:jm2006.c.i.v+cfa-reducer.c@717@F@main@main__y?1!0&0#19| (_ BitVec 32))

(declare-const |goto_symex::guard?0!0&0#21| (_ BitVec 1))

(declare-const |c:jm2006.c.i.v+cfa-reducer.c@693@F@main@main__x?1!0&0#20| (_ BitVec 32))

(declare-const |c:jm2006.c.i.v+cfa-reducer.c@717@F@main@main__y?1!0&0#20| (_ BitVec 32))

(declare-const |goto_symex::guard?0!0&0#22| (_ BitVec 1))

(declare-const |c:jm2006.c.i.v+cfa-reducer.c@693@F@main@main__x?1!0&0#21| (_ BitVec 32))

(declare-const |c:jm2006.c.i.v+cfa-reducer.c@717@F@main@main__y?1!0&0#21| (_ BitVec 32))

(declare-const |goto_symex::guard?0!0&0#23| (_ BitVec 1))

(declare-const |c:jm2006.c.i.v+cfa-reducer.c@693@F@main@main__x?1!0&0#22| (_ BitVec 32))

(declare-const |c:jm2006.c.i.v+cfa-reducer.c@717@F@main@main__y?1!0&0#22| (_ BitVec 32))

(declare-const |goto_symex::guard?0!0&0#24| (_ BitVec 1))

(declare-const |c:jm2006.c.i.v+cfa-reducer.c@693@F@main@main__x?1!0&0#23| (_ BitVec 32))

(declare-const |c:jm2006.c.i.v+cfa-reducer.c@717@F@main@main__y?1!0&0#23| (_ BitVec 32))

(declare-const |goto_symex::guard?0!0&0#25| (_ BitVec 1))

(declare-const |c:jm2006.c.i.v+cfa-reducer.c@693@F@main@main__x?1!0&0#24| (_ BitVec 32))

(declare-const |c:jm2006.c.i.v+cfa-reducer.c@717@F@main@main__y?1!0&0#24| (_ BitVec 32))

(declare-const |goto_symex::guard?0!0&0#26| (_ BitVec 1))

(declare-const |c:jm2006.c.i.v+cfa-reducer.c@693@F@main@main__x?1!0&0#25| (_ BitVec 32))

(declare-const |c:jm2006.c.i.v+cfa-reducer.c@717@F@main@main__y?1!0&0#25| (_ BitVec 32))

(declare-const |goto_symex::guard?0!0&0#27| (_ BitVec 1))

(declare-const |c:jm2006.c.i.v+cfa-reducer.c@693@F@main@main__x?1!0&0#26| (_ BitVec 32))

(declare-const |c:jm2006.c.i.v+cfa-reducer.c@717@F@main@main__y?1!0&0#26| (_ BitVec 32))

(declare-const |goto_symex::guard?0!0&0#28| (_ BitVec 1))

(declare-const |c:jm2006.c.i.v+cfa-reducer.c@693@F@main@main__x?1!0&0#27| (_ BitVec 32))

(declare-const |c:jm2006.c.i.v+cfa-reducer.c@717@F@main@main__y?1!0&0#27| (_ BitVec 32))

(declare-const |goto_symex::guard?0!0&0#29| (_ BitVec 1))

(declare-const |c:jm2006.c.i.v+cfa-reducer.c@717@F@main@main__y?1!0&0#29| (_ BitVec 32))

(declare-const |c:jm2006.c.i.v+cfa-reducer.c@717@F@main@main__y?1!0&0#30| (_ BitVec 32))

(declare-const |c:jm2006.c.i.v+cfa-reducer.c@717@F@main@main__y?1!0&0#31| (_ BitVec 32))

(declare-const |c:jm2006.c.i.v+cfa-reducer.c@717@F@main@main__y?1!0&0#32| (_ BitVec 32))

(declare-const |c:jm2006.c.i.v+cfa-reducer.c@717@F@main@main__y?1!0&0#33| (_ BitVec 32))

(declare-const |c:jm2006.c.i.v+cfa-reducer.c@717@F@main@main__y?1!0&0#34| (_ BitVec 32))

(declare-const |c:jm2006.c.i.v+cfa-reducer.c@717@F@main@main__y?1!0&0#35| (_ BitVec 32))

(declare-const |c:jm2006.c.i.v+cfa-reducer.c@717@F@main@main__y?1!0&0#36| (_ BitVec 32))

(declare-const |c:jm2006.c.i.v+cfa-reducer.c@717@F@main@main__y?1!0&0#37| (_ BitVec 32))

(declare-const |c:jm2006.c.i.v+cfa-reducer.c@717@F@main@main__y?1!0&0#38| (_ BitVec 32))

(declare-const |c:jm2006.c.i.v+cfa-reducer.c@717@F@main@main__y?1!0&0#39| (_ BitVec 32))

(declare-const |c:jm2006.c.i.v+cfa-reducer.c@717@F@main@main__y?1!0&0#40| (_ BitVec 32))

(declare-const |c:jm2006.c.i.v+cfa-reducer.c@717@F@main@main__y?1!0&0#41| (_ BitVec 32))

(declare-const |c:jm2006.c.i.v+cfa-reducer.c@717@F@main@main__y?1!0&0#42| (_ BitVec 32))

(declare-const |c:jm2006.c.i.v+cfa-reducer.c@717@F@main@main__y?1!0&0#43| (_ BitVec 32))

(declare-const |c:jm2006.c.i.v+cfa-reducer.c@717@F@main@main__y?1!0&0#44| (_ BitVec 32))

(declare-const |c:jm2006.c.i.v+cfa-reducer.c@717@F@main@main__y?1!0&0#45| (_ BitVec 32))

(declare-const |c:jm2006.c.i.v+cfa-reducer.c@717@F@main@main__y?1!0&0#46| (_ BitVec 32))

(declare-const |c:jm2006.c.i.v+cfa-reducer.c@717@F@main@main__y?1!0&0#47| (_ BitVec 32))

(declare-const |c:jm2006.c.i.v+cfa-reducer.c@717@F@main@main__y?1!0&0#48| (_ BitVec 32))

(declare-const |c:jm2006.c.i.v+cfa-reducer.c@717@F@main@main__y?1!0&0#49| (_ BitVec 32))

(declare-const |c:jm2006.c.i.v+cfa-reducer.c@717@F@main@main__y?1!0&0#50| (_ BitVec 32))

(declare-const |c:jm2006.c.i.v+cfa-reducer.c@717@F@main@main__y?1!0&0#51| (_ BitVec 32))

(declare-const |c:jm2006.c.i.v+cfa-reducer.c@717@F@main@main__y?1!0&0#52| (_ BitVec 32))

(declare-const |c:jm2006.c.i.v+cfa-reducer.c@717@F@main@main__y?1!0&0#53| (_ BitVec 32))

(declare-const |c:jm2006.c.i.v+cfa-reducer.c@717@F@main@main__y?1!0&0#54| (_ BitVec 32))

(declare-const |c:jm2006.c.i.v+cfa-reducer.c@717@F@main@main__y?1!0&0#55| (_ BitVec 32))

(declare-const |goto_symex::guard?0!0&0#30| (_ BitVec 1))

(declare-const |c:jm2006.c.i.v+cfa-reducer.c@966@F@main@__tmp_1?1!0&0#1| (_ BitVec 32))

(declare-const |c:jm2006.c.i.v+cfa-reducer.c@1005@F@main@__VERIFIER_assert__cond?1!0&0#1| (_ BitVec 32))

(declare-const |goto_symex::guard?0!0&0#31| (_ BitVec 1))

(declare-const |execution_statet::guard_exec?0!0| (_ BitVec 1))

(assert 

 (= __ESBMC_ptr_obj_start_0 #b0000000000000000000000000000000000000000000000000000000000000000))

(assert 

 (= #b0000000000000000000000000000000000000000000000000000000000000000 __ESBMC_ptr_obj_end_0))

(assert 

 (= __ESBMC_ptr_obj_start_1 #b0000000000000000000000000000000000000000000000000000000000000001))

(assert 

 (= #b1111111111111111111111111111111111111111111111111111111111111111 __ESBMC_ptr_obj_end_1))

(assert 

 (= __ESBMC_ptr_obj_end_0 |smt_conv::__ESBMC_ptr_addr_range_0..end0|))

(assert 

 (= __ESBMC_ptr_obj_start_0 |smt_conv::__ESBMC_ptr_addr_range_0..start0|))

(assert 

 (= __ESBMC_ptr_obj_end_1 |smt_conv::__ESBMC_ptr_addr_range_1..end0|))

(assert 

 (= __ESBMC_ptr_obj_start_1 |smt_conv::__ESBMC_ptr_addr_range_1..start0|))

(assert 

 (= |smt_conv::smt_conv::collate_array_vals::3..end0| |smt_conv::smt_conv::collate_array_vals::4..end0|))

(assert 

 (= |smt_conv::smt_conv::collate_array_vals::3..start0| |smt_conv::smt_conv::collate_array_vals::4..start0|))

(assert 

 (= __ESBMC_ptr_obj_end_0 |smt_conv::smt_conv::collate_array_vals::7..end0|))

(assert 

 (= __ESBMC_ptr_obj_start_0 |smt_conv::smt_conv::collate_array_vals::7..start0|))

(assert 

 (= |c:jm2006.c.i.v+cfa-reducer.c@471@F@main@main__i?1!0&0#1| |nondet$symex::nondet254|))

(assert 

 (= |c:jm2006.c.i.v+cfa-reducer.c@485@F@main@main__j?1!0&0#1| |nondet$symex::nondet255|))

(assert 

 (= |goto_symex::guard?0!0&0#1| 

  (ite 

   (bvslt |c:jm2006.c.i.v+cfa-reducer.c@471@F@main@main__i?1!0&0#1| #b00000000000000000000000000000000) #b1 #b0)))

(assert 

 (= |goto_symex::guard?0!0&0#2| 

  (ite 

   (bvslt |c:jm2006.c.i.v+cfa-reducer.c@485@F@main@main__j?1!0&0#1| #b00000000000000000000000000000000) #b1 #b0)))

(assert 

 (= |c:jm2006.c.i.v+cfa-reducer.c@471@F@main@main__i?1!0&0#1| |c:jm2006.c.i.v+cfa-reducer.c@693@F@main@main__x?1!0&0#1|))

(assert 

 (= |c:jm2006.c.i.v+cfa-reducer.c@485@F@main@main__j?1!0&0#1| |c:jm2006.c.i.v+cfa-reducer.c@717@F@main@main__y?1!0&0#1|))

(assert 

 (= |goto_symex::guard?0!0&0#3| 

  (bvnot 

   (ite 

    (= #b00000000000000000000000000000000 |c:jm2006.c.i.v+cfa-reducer.c@693@F@main@main__x?1!0&0#1|) #b1 #b0))))

(assert 

 (= |c:jm2006.c.i.v+cfa-reducer.c@693@F@main@main__x?1!0&0#2| 

  (bvadd #b11111111111111111111111111111111 |c:jm2006.c.i.v+cfa-reducer.c@693@F@main@main__x?1!0&0#1|)))

(assert 

 (= |c:jm2006.c.i.v+cfa-reducer.c@717@F@main@main__y?1!0&0#2| 

  (bvadd #b11111111111111111111111111111111 |c:jm2006.c.i.v+cfa-reducer.c@717@F@main@main__y?1!0&0#1|)))

(assert 

 (= |goto_symex::guard?0!0&0#4| 

  (bvnot 

   (ite 

    (= #b00000000000000000000000000000000 |c:jm2006.c.i.v+cfa-reducer.c@693@F@main@main__x?1!0&0#2|) #b1 #b0))))

(assert 

 (= |c:jm2006.c.i.v+cfa-reducer.c@693@F@main@main__x?1!0&0#3| 

  (bvadd #b11111111111111111111111111111111 |c:jm2006.c.i.v+cfa-reducer.c@693@F@main@main__x?1!0&0#2|)))

(assert 

 (= |c:jm2006.c.i.v+cfa-reducer.c@717@F@main@main__y?1!0&0#3| 

  (bvadd #b11111111111111111111111111111111 |c:jm2006.c.i.v+cfa-reducer.c@717@F@main@main__y?1!0&0#2|)))

(assert 

 (= |goto_symex::guard?0!0&0#5| 

  (bvnot 

   (ite 

    (= #b00000000000000000000000000000000 |c:jm2006.c.i.v+cfa-reducer.c@693@F@main@main__x?1!0&0#3|) #b1 #b0))))

(assert 

 (= |c:jm2006.c.i.v+cfa-reducer.c@693@F@main@main__x?1!0&0#4| 

  (bvadd #b11111111111111111111111111111111 |c:jm2006.c.i.v+cfa-reducer.c@693@F@main@main__x?1!0&0#3|)))

(assert 

 (= |c:jm2006.c.i.v+cfa-reducer.c@717@F@main@main__y?1!0&0#4| 

  (bvadd #b11111111111111111111111111111111 |c:jm2006.c.i.v+cfa-reducer.c@717@F@main@main__y?1!0&0#3|)))

(assert 

 (= |goto_symex::guard?0!0&0#6| 

  (bvnot 

   (ite 

    (= #b00000000000000000000000000000000 |c:jm2006.c.i.v+cfa-reducer.c@693@F@main@main__x?1!0&0#4|) #b1 #b0))))

(assert 

 (= |c:jm2006.c.i.v+cfa-reducer.c@693@F@main@main__x?1!0&0#5| 

  (bvadd #b11111111111111111111111111111111 |c:jm2006.c.i.v+cfa-reducer.c@693@F@main@main__x?1!0&0#4|)))

(assert 

 (= |c:jm2006.c.i.v+cfa-reducer.c@717@F@main@main__y?1!0&0#5| 

  (bvadd #b11111111111111111111111111111111 |c:jm2006.c.i.v+cfa-reducer.c@717@F@main@main__y?1!0&0#4|)))

(assert 

 (= |goto_symex::guard?0!0&0#7| 

  (bvnot 

   (ite 

    (= #b00000000000000000000000000000000 |c:jm2006.c.i.v+cfa-reducer.c@693@F@main@main__x?1!0&0#5|) #b1 #b0))))

(assert 

 (= |c:jm2006.c.i.v+cfa-reducer.c@693@F@main@main__x?1!0&0#6| 

  (bvadd #b11111111111111111111111111111111 |c:jm2006.c.i.v+cfa-reducer.c@693@F@main@main__x?1!0&0#5|)))

(assert 

 (= |c:jm2006.c.i.v+cfa-reducer.c@717@F@main@main__y?1!0&0#6| 

  (bvadd #b11111111111111111111111111111111 |c:jm2006.c.i.v+cfa-reducer.c@717@F@main@main__y?1!0&0#5|)))

(assert 

 (= |goto_symex::guard?0!0&0#8| 

  (bvnot 

   (ite 

    (= #b00000000000000000000000000000000 |c:jm2006.c.i.v+cfa-reducer.c@693@F@main@main__x?1!0&0#6|) #b1 #b0))))

(assert 

 (= |c:jm2006.c.i.v+cfa-reducer.c@693@F@main@main__x?1!0&0#7| 

  (bvadd #b11111111111111111111111111111111 |c:jm2006.c.i.v+cfa-reducer.c@693@F@main@main__x?1!0&0#6|)))

(assert 

 (= |c:jm2006.c.i.v+cfa-reducer.c@717@F@main@main__y?1!0&0#7| 

  (bvadd #b11111111111111111111111111111111 |c:jm2006.c.i.v+cfa-reducer.c@717@F@main@main__y?1!0&0#6|)))

(assert 

 (= |goto_symex::guard?0!0&0#9| 

  (bvnot 

   (ite 

    (= #b00000000000000000000000000000000 |c:jm2006.c.i.v+cfa-reducer.c@693@F@main@main__x?1!0&0#7|) #b1 #b0))))

(assert 

 (= |c:jm2006.c.i.v+cfa-reducer.c@693@F@main@main__x?1!0&0#8| 

  (bvadd #b11111111111111111111111111111111 |c:jm2006.c.i.v+cfa-reducer.c@693@F@main@main__x?1!0&0#7|)))

(assert 

 (= |c:jm2006.c.i.v+cfa-reducer.c@717@F@main@main__y?1!0&0#8| 

  (bvadd #b11111111111111111111111111111111 |c:jm2006.c.i.v+cfa-reducer.c@717@F@main@main__y?1!0&0#7|)))

(assert 

 (= |goto_symex::guard?0!0&0#10| 

  (bvnot 

   (ite 

    (= #b00000000000000000000000000000000 |c:jm2006.c.i.v+cfa-reducer.c@693@F@main@main__x?1!0&0#8|) #b1 #b0))))

(assert 

 (= |c:jm2006.c.i.v+cfa-reducer.c@693@F@main@main__x?1!0&0#9| 

  (bvadd #b11111111111111111111111111111111 |c:jm2006.c.i.v+cfa-reducer.c@693@F@main@main__x?1!0&0#8|)))

(assert 

 (= |c:jm2006.c.i.v+cfa-reducer.c@717@F@main@main__y?1!0&0#9| 

  (bvadd #b11111111111111111111111111111111 |c:jm2006.c.i.v+cfa-reducer.c@717@F@main@main__y?1!0&0#8|)))

(assert 

 (= |goto_symex::guard?0!0&0#11| 

  (bvnot 

   (ite 

    (= #b00000000000000000000000000000000 |c:jm2006.c.i.v+cfa-reducer.c@693@F@main@main__x?1!0&0#9|) #b1 #b0))))

(assert 

 (= |c:jm2006.c.i.v+cfa-reducer.c@693@F@main@main__x?1!0&0#10| 

  (bvadd #b11111111111111111111111111111111 |c:jm2006.c.i.v+cfa-reducer.c@693@F@main@main__x?1!0&0#9|)))

(assert 

 (= |c:jm2006.c.i.v+cfa-reducer.c@717@F@main@main__y?1!0&0#10| 

  (bvadd #b11111111111111111111111111111111 |c:jm2006.c.i.v+cfa-reducer.c@717@F@main@main__y?1!0&0#9|)))

(assert 

 (= |goto_symex::guard?0!0&0#12| 

  (bvnot 

   (ite 

    (= #b00000000000000000000000000000000 |c:jm2006.c.i.v+cfa-reducer.c@693@F@main@main__x?1!0&0#10|) #b1 #b0))))

(assert 

 (= |c:jm2006.c.i.v+cfa-reducer.c@693@F@main@main__x?1!0&0#11| 

  (bvadd #b11111111111111111111111111111111 |c:jm2006.c.i.v+cfa-reducer.c@693@F@main@main__x?1!0&0#10|)))

(assert 

 (= |c:jm2006.c.i.v+cfa-reducer.c@717@F@main@main__y?1!0&0#11| 

  (bvadd #b11111111111111111111111111111111 |c:jm2006.c.i.v+cfa-reducer.c@717@F@main@main__y?1!0&0#10|)))

(assert 

 (= |goto_symex::guard?0!0&0#13| 

  (bvnot 

   (ite 

    (= #b00000000000000000000000000000000 |c:jm2006.c.i.v+cfa-reducer.c@693@F@main@main__x?1!0&0#11|) #b1 #b0))))

(assert 

 (= |c:jm2006.c.i.v+cfa-reducer.c@693@F@main@main__x?1!0&0#12| 

  (bvadd #b11111111111111111111111111111111 |c:jm2006.c.i.v+cfa-reducer.c@693@F@main@main__x?1!0&0#11|)))

(assert 

 (= |c:jm2006.c.i.v+cfa-reducer.c@717@F@main@main__y?1!0&0#12| 

  (bvadd #b11111111111111111111111111111111 |c:jm2006.c.i.v+cfa-reducer.c@717@F@main@main__y?1!0&0#11|)))

(assert 

 (= |goto_symex::guard?0!0&0#14| 

  (bvnot 

   (ite 

    (= #b00000000000000000000000000000000 |c:jm2006.c.i.v+cfa-reducer.c@693@F@main@main__x?1!0&0#12|) #b1 #b0))))

(assert 

 (= |c:jm2006.c.i.v+cfa-reducer.c@693@F@main@main__x?1!0&0#13| 

  (bvadd #b11111111111111111111111111111111 |c:jm2006.c.i.v+cfa-reducer.c@693@F@main@main__x?1!0&0#12|)))

(assert 

 (= |c:jm2006.c.i.v+cfa-reducer.c@717@F@main@main__y?1!0&0#13| 

  (bvadd #b11111111111111111111111111111111 |c:jm2006.c.i.v+cfa-reducer.c@717@F@main@main__y?1!0&0#12|)))

(assert 

 (= |goto_symex::guard?0!0&0#15| 

  (bvnot 

   (ite 

    (= #b00000000000000000000000000000000 |c:jm2006.c.i.v+cfa-reducer.c@693@F@main@main__x?1!0&0#13|) #b1 #b0))))

(assert 

 (= |c:jm2006.c.i.v+cfa-reducer.c@693@F@main@main__x?1!0&0#14| 

  (bvadd #b11111111111111111111111111111111 |c:jm2006.c.i.v+cfa-reducer.c@693@F@main@main__x?1!0&0#13|)))

(assert 

 (= |c:jm2006.c.i.v+cfa-reducer.c@717@F@main@main__y?1!0&0#14| 

  (bvadd #b11111111111111111111111111111111 |c:jm2006.c.i.v+cfa-reducer.c@717@F@main@main__y?1!0&0#13|)))

(assert 

 (= |goto_symex::guard?0!0&0#16| 

  (bvnot 

   (ite 

    (= #b00000000000000000000000000000000 |c:jm2006.c.i.v+cfa-reducer.c@693@F@main@main__x?1!0&0#14|) #b1 #b0))))

(assert 

 (= |c:jm2006.c.i.v+cfa-reducer.c@693@F@main@main__x?1!0&0#15| 

  (bvadd #b11111111111111111111111111111111 |c:jm2006.c.i.v+cfa-reducer.c@693@F@main@main__x?1!0&0#14|)))

(assert 

 (= |c:jm2006.c.i.v+cfa-reducer.c@717@F@main@main__y?1!0&0#15| 

  (bvadd #b11111111111111111111111111111111 |c:jm2006.c.i.v+cfa-reducer.c@717@F@main@main__y?1!0&0#14|)))

(assert 

 (= |goto_symex::guard?0!0&0#17| 

  (bvnot 

   (ite 

    (= #b00000000000000000000000000000000 |c:jm2006.c.i.v+cfa-reducer.c@693@F@main@main__x?1!0&0#15|) #b1 #b0))))

(assert 

 (= |c:jm2006.c.i.v+cfa-reducer.c@693@F@main@main__x?1!0&0#16| 

  (bvadd #b11111111111111111111111111111111 |c:jm2006.c.i.v+cfa-reducer.c@693@F@main@main__x?1!0&0#15|)))

(assert 

 (= |c:jm2006.c.i.v+cfa-reducer.c@717@F@main@main__y?1!0&0#16| 

  (bvadd #b11111111111111111111111111111111 |c:jm2006.c.i.v+cfa-reducer.c@717@F@main@main__y?1!0&0#15|)))

(assert 

 (= |goto_symex::guard?0!0&0#18| 

  (bvnot 

   (ite 

    (= #b00000000000000000000000000000000 |c:jm2006.c.i.v+cfa-reducer.c@693@F@main@main__x?1!0&0#16|) #b1 #b0))))

(assert 

 (= |c:jm2006.c.i.v+cfa-reducer.c@693@F@main@main__x?1!0&0#17| 

  (bvadd #b11111111111111111111111111111111 |c:jm2006.c.i.v+cfa-reducer.c@693@F@main@main__x?1!0&0#16|)))

(assert 

 (= |c:jm2006.c.i.v+cfa-reducer.c@717@F@main@main__y?1!0&0#17| 

  (bvadd #b11111111111111111111111111111111 |c:jm2006.c.i.v+cfa-reducer.c@717@F@main@main__y?1!0&0#16|)))

(assert 

 (= |goto_symex::guard?0!0&0#19| 

  (bvnot 

   (ite 

    (= #b00000000000000000000000000000000 |c:jm2006.c.i.v+cfa-reducer.c@693@F@main@main__x?1!0&0#17|) #b1 #b0))))

(assert 

 (= |c:jm2006.c.i.v+cfa-reducer.c@693@F@main@main__x?1!0&0#18| 

  (bvadd #b11111111111111111111111111111111 |c:jm2006.c.i.v+cfa-reducer.c@693@F@main@main__x?1!0&0#17|)))

(assert 

 (= |c:jm2006.c.i.v+cfa-reducer.c@717@F@main@main__y?1!0&0#18| 

  (bvadd #b11111111111111111111111111111111 |c:jm2006.c.i.v+cfa-reducer.c@717@F@main@main__y?1!0&0#17|)))

(assert 

 (= |goto_symex::guard?0!0&0#20| 

  (bvnot 

   (ite 

    (= #b00000000000000000000000000000000 |c:jm2006.c.i.v+cfa-reducer.c@693@F@main@main__x?1!0&0#18|) #b1 #b0))))

(assert 

 (= |c:jm2006.c.i.v+cfa-reducer.c@693@F@main@main__x?1!0&0#19| 

  (bvadd #b11111111111111111111111111111111 |c:jm2006.c.i.v+cfa-reducer.c@693@F@main@main__x?1!0&0#18|)))

(assert 

 (= |c:jm2006.c.i.v+cfa-reducer.c@717@F@main@main__y?1!0&0#19| 

  (bvadd #b11111111111111111111111111111111 |c:jm2006.c.i.v+cfa-reducer.c@717@F@main@main__y?1!0&0#18|)))

(assert 

 (= |goto_symex::guard?0!0&0#21| 

  (bvnot 

   (ite 

    (= #b00000000000000000000000000000000 |c:jm2006.c.i.v+cfa-reducer.c@693@F@main@main__x?1!0&0#19|) #b1 #b0))))

(assert 

 (= |c:jm2006.c.i.v+cfa-reducer.c@693@F@main@main__x?1!0&0#20| 

  (bvadd #b11111111111111111111111111111111 |c:jm2006.c.i.v+cfa-reducer.c@693@F@main@main__x?1!0&0#19|)))

(assert 

 (= |c:jm2006.c.i.v+cfa-reducer.c@717@F@main@main__y?1!0&0#20| 

  (bvadd #b11111111111111111111111111111111 |c:jm2006.c.i.v+cfa-reducer.c@717@F@main@main__y?1!0&0#19|)))

(assert 

 (= |goto_symex::guard?0!0&0#22| 

  (bvnot 

   (ite 

    (= #b00000000000000000000000000000000 |c:jm2006.c.i.v+cfa-reducer.c@693@F@main@main__x?1!0&0#20|) #b1 #b0))))

(assert 

 (= |c:jm2006.c.i.v+cfa-reducer.c@693@F@main@main__x?1!0&0#21| 

  (bvadd #b11111111111111111111111111111111 |c:jm2006.c.i.v+cfa-reducer.c@693@F@main@main__x?1!0&0#20|)))

(assert 

 (= |c:jm2006.c.i.v+cfa-reducer.c@717@F@main@main__y?1!0&0#21| 

  (bvadd #b11111111111111111111111111111111 |c:jm2006.c.i.v+cfa-reducer.c@717@F@main@main__y?1!0&0#20|)))

(assert 

 (= |goto_symex::guard?0!0&0#23| 

  (bvnot 

   (ite 

    (= #b00000000000000000000000000000000 |c:jm2006.c.i.v+cfa-reducer.c@693@F@main@main__x?1!0&0#21|) #b1 #b0))))

(assert 

 (= |c:jm2006.c.i.v+cfa-reducer.c@693@F@main@main__x?1!0&0#22| 

  (bvadd #b11111111111111111111111111111111 |c:jm2006.c.i.v+cfa-reducer.c@693@F@main@main__x?1!0&0#21|)))

(assert 

 (= |c:jm2006.c.i.v+cfa-reducer.c@717@F@main@main__y?1!0&0#22| 

  (bvadd #b11111111111111111111111111111111 |c:jm2006.c.i.v+cfa-reducer.c@717@F@main@main__y?1!0&0#21|)))

(assert 

 (= |goto_symex::guard?0!0&0#24| 

  (bvnot 

   (ite 

    (= #b00000000000000000000000000000000 |c:jm2006.c.i.v+cfa-reducer.c@693@F@main@main__x?1!0&0#22|) #b1 #b0))))

(assert 

 (= |c:jm2006.c.i.v+cfa-reducer.c@693@F@main@main__x?1!0&0#23| 

  (bvadd #b11111111111111111111111111111111 |c:jm2006.c.i.v+cfa-reducer.c@693@F@main@main__x?1!0&0#22|)))

(assert 

 (= |c:jm2006.c.i.v+cfa-reducer.c@717@F@main@main__y?1!0&0#23| 

  (bvadd #b11111111111111111111111111111111 |c:jm2006.c.i.v+cfa-reducer.c@717@F@main@main__y?1!0&0#22|)))

(assert 

 (= |goto_symex::guard?0!0&0#25| 

  (bvnot 

   (ite 

    (= #b00000000000000000000000000000000 |c:jm2006.c.i.v+cfa-reducer.c@693@F@main@main__x?1!0&0#23|) #b1 #b0))))

(assert 

 (= |c:jm2006.c.i.v+cfa-reducer.c@693@F@main@main__x?1!0&0#24| 

  (bvadd #b11111111111111111111111111111111 |c:jm2006.c.i.v+cfa-reducer.c@693@F@main@main__x?1!0&0#23|)))

(assert 

 (= |c:jm2006.c.i.v+cfa-reducer.c@717@F@main@main__y?1!0&0#24| 

  (bvadd #b11111111111111111111111111111111 |c:jm2006.c.i.v+cfa-reducer.c@717@F@main@main__y?1!0&0#23|)))

(assert 

 (= |goto_symex::guard?0!0&0#26| 

  (bvnot 

   (ite 

    (= #b00000000000000000000000000000000 |c:jm2006.c.i.v+cfa-reducer.c@693@F@main@main__x?1!0&0#24|) #b1 #b0))))

(assert 

 (= |c:jm2006.c.i.v+cfa-reducer.c@693@F@main@main__x?1!0&0#25| 

  (bvadd #b11111111111111111111111111111111 |c:jm2006.c.i.v+cfa-reducer.c@693@F@main@main__x?1!0&0#24|)))

(assert 

 (= |c:jm2006.c.i.v+cfa-reducer.c@717@F@main@main__y?1!0&0#25| 

  (bvadd #b11111111111111111111111111111111 |c:jm2006.c.i.v+cfa-reducer.c@717@F@main@main__y?1!0&0#24|)))

(assert 

 (= |goto_symex::guard?0!0&0#27| 

  (bvnot 

   (ite 

    (= #b00000000000000000000000000000000 |c:jm2006.c.i.v+cfa-reducer.c@693@F@main@main__x?1!0&0#25|) #b1 #b0))))

(assert 

 (= |c:jm2006.c.i.v+cfa-reducer.c@693@F@main@main__x?1!0&0#26| 

  (bvadd #b11111111111111111111111111111111 |c:jm2006.c.i.v+cfa-reducer.c@693@F@main@main__x?1!0&0#25|)))

(assert 

 (= |c:jm2006.c.i.v+cfa-reducer.c@717@F@main@main__y?1!0&0#26| 

  (bvadd #b11111111111111111111111111111111 |c:jm2006.c.i.v+cfa-reducer.c@717@F@main@main__y?1!0&0#25|)))

(assert 

 (= |goto_symex::guard?0!0&0#28| 

  (bvnot 

   (ite 

    (= #b00000000000000000000000000000000 |c:jm2006.c.i.v+cfa-reducer.c@693@F@main@main__x?1!0&0#26|) #b1 #b0))))

(assert 

 (= |c:jm2006.c.i.v+cfa-reducer.c@693@F@main@main__x?1!0&0#27| 

  (bvadd #b11111111111111111111111111111111 |c:jm2006.c.i.v+cfa-reducer.c@693@F@main@main__x?1!0&0#26|)))

(assert 

 (= |c:jm2006.c.i.v+cfa-reducer.c@717@F@main@main__y?1!0&0#27| 

  (bvadd #b11111111111111111111111111111111 |c:jm2006.c.i.v+cfa-reducer.c@717@F@main@main__y?1!0&0#26|)))

(assert 

 (= |goto_symex::guard?0!0&0#29| 

  (bvnot 

   (ite 

    (= #b00000000000000000000000000000000 |c:jm2006.c.i.v+cfa-reducer.c@693@F@main@main__x?1!0&0#27|) #b1 #b0))))

(assert 

 (= |c:jm2006.c.i.v+cfa-reducer.c@717@F@main@main__y?1!0&0#27| |c:jm2006.c.i.v+cfa-reducer.c@717@F@main@main__y?1!0&0#29|))

(assert 

 (= |c:jm2006.c.i.v+cfa-reducer.c@717@F@main@main__y?1!0&0#30| 

  (ite 

   (= #b1 |goto_symex::guard?0!0&0#28|) |c:jm2006.c.i.v+cfa-reducer.c@717@F@main@main__y?1!0&0#29| |c:jm2006.c.i.v+cfa-reducer.c@717@F@main@main__y?1!0&0#26|)))

(assert 

 (= |c:jm2006.c.i.v+cfa-reducer.c@717@F@main@main__y?1!0&0#31| 

  (ite 

   (= #b1 |goto_symex::guard?0!0&0#27|) |c:jm2006.c.i.v+cfa-reducer.c@717@F@main@main__y?1!0&0#30| |c:jm2006.c.i.v+cfa-reducer.c@717@F@main@main__y?1!0&0#25|)))

(assert 

 (= |c:jm2006.c.i.v+cfa-reducer.c@717@F@main@main__y?1!0&0#32| 

  (ite 

   (= #b1 |goto_symex::guard?0!0&0#26|) |c:jm2006.c.i.v+cfa-reducer.c@717@F@main@main__y?1!0&0#31| |c:jm2006.c.i.v+cfa-reducer.c@717@F@main@main__y?1!0&0#24|)))

(assert 

 (= |c:jm2006.c.i.v+cfa-reducer.c@717@F@main@main__y?1!0&0#33| 

  (ite 

   (= #b1 |goto_symex::guard?0!0&0#25|) |c:jm2006.c.i.v+cfa-reducer.c@717@F@main@main__y?1!0&0#32| |c:jm2006.c.i.v+cfa-reducer.c@717@F@main@main__y?1!0&0#23|)))

(assert 

 (= |c:jm2006.c.i.v+cfa-reducer.c@717@F@main@main__y?1!0&0#34| 

  (ite 

   (= #b1 |goto_symex::guard?0!0&0#24|) |c:jm2006.c.i.v+cfa-reducer.c@717@F@main@main__y?1!0&0#33| |c:jm2006.c.i.v+cfa-reducer.c@717@F@main@main__y?1!0&0#22|)))

(assert 

 (= |c:jm2006.c.i.v+cfa-reducer.c@717@F@main@main__y?1!0&0#35| 

  (ite 

   (= #b1 |goto_symex::guard?0!0&0#23|) |c:jm2006.c.i.v+cfa-reducer.c@717@F@main@main__y?1!0&0#34| |c:jm2006.c.i.v+cfa-reducer.c@717@F@main@main__y?1!0&0#21|)))

(assert 

 (= |c:jm2006.c.i.v+cfa-reducer.c@717@F@main@main__y?1!0&0#36| 

  (ite 

   (= #b1 |goto_symex::guard?0!0&0#22|) |c:jm2006.c.i.v+cfa-reducer.c@717@F@main@main__y?1!0&0#35| |c:jm2006.c.i.v+cfa-reducer.c@717@F@main@main__y?1!0&0#20|)))

(assert 

 (= |c:jm2006.c.i.v+cfa-reducer.c@717@F@main@main__y?1!0&0#37| 

  (ite 

   (= #b1 |goto_symex::guard?0!0&0#21|) |c:jm2006.c.i.v+cfa-reducer.c@717@F@main@main__y?1!0&0#36| |c:jm2006.c.i.v+cfa-reducer.c@717@F@main@main__y?1!0&0#19|)))

(assert 

 (= |c:jm2006.c.i.v+cfa-reducer.c@717@F@main@main__y?1!0&0#38| 

  (ite 

   (= #b1 |goto_symex::guard?0!0&0#20|) |c:jm2006.c.i.v+cfa-reducer.c@717@F@main@main__y?1!0&0#37| |c:jm2006.c.i.v+cfa-reducer.c@717@F@main@main__y?1!0&0#18|)))

(assert 

 (= |c:jm2006.c.i.v+cfa-reducer.c@717@F@main@main__y?1!0&0#39| 

  (ite 

   (= #b1 |goto_symex::guard?0!0&0#19|) |c:jm2006.c.i.v+cfa-reducer.c@717@F@main@main__y?1!0&0#38| |c:jm2006.c.i.v+cfa-reducer.c@717@F@main@main__y?1!0&0#17|)))

(assert 

 (= |c:jm2006.c.i.v+cfa-reducer.c@717@F@main@main__y?1!0&0#40| 

  (ite 

   (= #b1 |goto_symex::guard?0!0&0#18|) |c:jm2006.c.i.v+cfa-reducer.c@717@F@main@main__y?1!0&0#39| |c:jm2006.c.i.v+cfa-reducer.c@717@F@main@main__y?1!0&0#16|)))

(assert 

 (= |c:jm2006.c.i.v+cfa-reducer.c@717@F@main@main__y?1!0&0#41| 

  (ite 

   (= #b1 |goto_symex::guard?0!0&0#17|) |c:jm2006.c.i.v+cfa-reducer.c@717@F@main@main__y?1!0&0#40| |c:jm2006.c.i.v+cfa-reducer.c@717@F@main@main__y?1!0&0#15|)))

(assert 

 (= |c:jm2006.c.i.v+cfa-reducer.c@717@F@main@main__y?1!0&0#42| 

  (ite 

   (= #b1 |goto_symex::guard?0!0&0#16|) |c:jm2006.c.i.v+cfa-reducer.c@717@F@main@main__y?1!0&0#41| |c:jm2006.c.i.v+cfa-reducer.c@717@F@main@main__y?1!0&0#14|)))

(assert 

 (= |c:jm2006.c.i.v+cfa-reducer.c@717@F@main@main__y?1!0&0#43| 

  (ite 

   (= #b1 |goto_symex::guard?0!0&0#15|) |c:jm2006.c.i.v+cfa-reducer.c@717@F@main@main__y?1!0&0#42| |c:jm2006.c.i.v+cfa-reducer.c@717@F@main@main__y?1!0&0#13|)))

(assert 

 (= |c:jm2006.c.i.v+cfa-reducer.c@717@F@main@main__y?1!0&0#44| 

  (ite 

   (= #b1 |goto_symex::guard?0!0&0#14|) |c:jm2006.c.i.v+cfa-reducer.c@717@F@main@main__y?1!0&0#43| |c:jm2006.c.i.v+cfa-reducer.c@717@F@main@main__y?1!0&0#12|)))

(assert 

 (= |c:jm2006.c.i.v+cfa-reducer.c@717@F@main@main__y?1!0&0#45| 

  (ite 

   (= #b1 |goto_symex::guard?0!0&0#13|) |c:jm2006.c.i.v+cfa-reducer.c@717@F@main@main__y?1!0&0#44| |c:jm2006.c.i.v+cfa-reducer.c@717@F@main@main__y?1!0&0#11|)))

(assert 

 (= |c:jm2006.c.i.v+cfa-reducer.c@717@F@main@main__y?1!0&0#46| 

  (ite 

   (= #b1 |goto_symex::guard?0!0&0#12|) |c:jm2006.c.i.v+cfa-reducer.c@717@F@main@main__y?1!0&0#45| |c:jm2006.c.i.v+cfa-reducer.c@717@F@main@main__y?1!0&0#10|)))

(assert 

 (= |c:jm2006.c.i.v+cfa-reducer.c@717@F@main@main__y?1!0&0#47| 

  (ite 

   (= #b1 |goto_symex::guard?0!0&0#11|) |c:jm2006.c.i.v+cfa-reducer.c@717@F@main@main__y?1!0&0#46| |c:jm2006.c.i.v+cfa-reducer.c@717@F@main@main__y?1!0&0#9|)))

(assert 

 (= |c:jm2006.c.i.v+cfa-reducer.c@717@F@main@main__y?1!0&0#48| 

  (ite 

   (= #b1 |goto_symex::guard?0!0&0#10|) |c:jm2006.c.i.v+cfa-reducer.c@717@F@main@main__y?1!0&0#47| |c:jm2006.c.i.v+cfa-reducer.c@717@F@main@main__y?1!0&0#8|)))

(assert 

 (= |c:jm2006.c.i.v+cfa-reducer.c@717@F@main@main__y?1!0&0#49| 

  (ite 

   (= #b1 |goto_symex::guard?0!0&0#9|) |c:jm2006.c.i.v+cfa-reducer.c@717@F@main@main__y?1!0&0#48| |c:jm2006.c.i.v+cfa-reducer.c@717@F@main@main__y?1!0&0#7|)))

(assert 

 (= |c:jm2006.c.i.v+cfa-reducer.c@717@F@main@main__y?1!0&0#50| 

  (ite 

   (= #b1 |goto_symex::guard?0!0&0#8|) |c:jm2006.c.i.v+cfa-reducer.c@717@F@main@main__y?1!0&0#49| |c:jm2006.c.i.v+cfa-reducer.c@717@F@main@main__y?1!0&0#6|)))

(assert 

 (= |c:jm2006.c.i.v+cfa-reducer.c@717@F@main@main__y?1!0&0#51| 

  (ite 

   (= #b1 |goto_symex::guard?0!0&0#7|) |c:jm2006.c.i.v+cfa-reducer.c@717@F@main@main__y?1!0&0#50| |c:jm2006.c.i.v+cfa-reducer.c@717@F@main@main__y?1!0&0#5|)))

(assert 

 (= |c:jm2006.c.i.v+cfa-reducer.c@717@F@main@main__y?1!0&0#52| 

  (ite 

   (= #b1 |goto_symex::guard?0!0&0#6|) |c:jm2006.c.i.v+cfa-reducer.c@717@F@main@main__y?1!0&0#51| |c:jm2006.c.i.v+cfa-reducer.c@717@F@main@main__y?1!0&0#4|)))

(assert 

 (= |c:jm2006.c.i.v+cfa-reducer.c@717@F@main@main__y?1!0&0#53| 

  (ite 

   (= #b1 |goto_symex::guard?0!0&0#5|) |c:jm2006.c.i.v+cfa-reducer.c@717@F@main@main__y?1!0&0#52| |c:jm2006.c.i.v+cfa-reducer.c@717@F@main@main__y?1!0&0#3|)))

(assert 

 (= |c:jm2006.c.i.v+cfa-reducer.c@717@F@main@main__y?1!0&0#54| 

  (ite 

   (= #b1 |goto_symex::guard?0!0&0#4|) |c:jm2006.c.i.v+cfa-reducer.c@717@F@main@main__y?1!0&0#53| |c:jm2006.c.i.v+cfa-reducer.c@717@F@main@main__y?1!0&0#2|)))

(assert 

 (= |c:jm2006.c.i.v+cfa-reducer.c@717@F@main@main__y?1!0&0#55| 

  (ite 

   (= #b1 |goto_symex::guard?0!0&0#3|) |c:jm2006.c.i.v+cfa-reducer.c@717@F@main@main__y?1!0&0#54| |c:jm2006.c.i.v+cfa-reducer.c@717@F@main@main__y?1!0&0#1|)))

(assert 

 (= |goto_symex::guard?0!0&0#30| 

  (ite 

   (= |c:jm2006.c.i.v+cfa-reducer.c@471@F@main@main__i?1!0&0#1| |c:jm2006.c.i.v+cfa-reducer.c@485@F@main@main__j?1!0&0#1|) #b1 #b0)))

(assert 

 (= |c:jm2006.c.i.v+cfa-reducer.c@966@F@main@__tmp_1?1!0&0#1| 

  (ite 

   (= #b00000000000000000000000000000000 |c:jm2006.c.i.v+cfa-reducer.c@717@F@main@main__y?1!0&0#55|) #b00000000000000000000000000000001 #b00000000000000000000000000000000)))

(assert 

 (= |c:jm2006.c.i.v+cfa-reducer.c@966@F@main@__tmp_1?1!0&0#1| |c:jm2006.c.i.v+cfa-reducer.c@1005@F@main@__VERIFIER_assert__cond?1!0&0#1|))

(assert 

 (= |goto_symex::guard?0!0&0#31| 

  (ite 

   (= #b00000000000000000000000000000000 |c:jm2006.c.i.v+cfa-reducer.c@1005@F@main@__VERIFIER_assert__cond?1!0&0#1|) #b1 #b0)))

(assert (= 

 (bvnot 

  (bvand 

   (bvand 

    (bvand 

     (bvand 

      (bvand 

       (bvand 

        (bvand 

         (bvand 

          (bvand 

           (bvand 

            (bvand 

             (bvand 

              (bvand 

               (bvand 

                (bvand 

                 (bvand 

                  (bvand 

                   (bvand 

                    (bvand 

                     (bvand 

                      (bvand 

                       (bvand 

                        (bvand 

                         (bvand 

                          (bvand 

                           (bvand 

                            (bvand 

                             (bvand 

                              (bvnot |goto_symex::guard?0!0&0#1|) 

                              (bvnot |goto_symex::guard?0!0&0#2|)) |goto_symex::guard?0!0&0#3|) |goto_symex::guard?0!0&0#4|) |goto_symex::guard?0!0&0#5|) |goto_symex::guard?0!0&0#6|) |goto_symex::guard?0!0&0#7|) |goto_symex::guard?0!0&0#8|) |goto_symex::guard?0!0&0#9|) |goto_symex::guard?0!0&0#10|) |goto_symex::guard?0!0&0#11|) |goto_symex::guard?0!0&0#12|) |goto_symex::guard?0!0&0#13|) |goto_symex::guard?0!0&0#14|) |goto_symex::guard?0!0&0#15|) |goto_symex::guard?0!0&0#16|) |goto_symex::guard?0!0&0#17|) |goto_symex::guard?0!0&0#18|) |goto_symex::guard?0!0&0#19|) |goto_symex::guard?0!0&0#20|) |goto_symex::guard?0!0&0#21|) |goto_symex::guard?0!0&0#22|) |goto_symex::guard?0!0&0#23|) |goto_symex::guard?0!0&0#24|) |goto_symex::guard?0!0&0#25|) |goto_symex::guard?0!0&0#26|) |goto_symex::guard?0!0&0#27|) |goto_symex::guard?0!0&0#28|) |goto_symex::guard?0!0&0#29|)) #b1))

(assert (= |execution_statet::guard_exec?0!0| #b1))

(assert (= |goto_symex::guard?0!0&0#31| #b1))

(assert (= |goto_symex::guard?0!0&0#30| #b1))

(assert (= 

 (bvnot 

  (bvand |goto_symex::guard?0!0&0#3| 

   (bvand |goto_symex::guard?0!0&0#4| 

    (bvand |goto_symex::guard?0!0&0#5| 

     (bvand |goto_symex::guard?0!0&0#6| 

      (bvand |goto_symex::guard?0!0&0#7| 

       (bvand |goto_symex::guard?0!0&0#8| 

        (bvand |goto_symex::guard?0!0&0#9| 

         (bvand |goto_symex::guard?0!0&0#10| 

          (bvand |goto_symex::guard?0!0&0#11| 

           (bvand |goto_symex::guard?0!0&0#12| 

            (bvand |goto_symex::guard?0!0&0#13| 

             (bvand |goto_symex::guard?0!0&0#14| 

              (bvand |goto_symex::guard?0!0&0#15| 

               (bvand |goto_symex::guard?0!0&0#16| 

                (bvand |goto_symex::guard?0!0&0#17| 

                 (bvand |goto_symex::guard?0!0&0#18| 

                  (bvand |goto_symex::guard?0!0&0#19| 

                   (bvand |goto_symex::guard?0!0&0#20| 

                    (bvand |goto_symex::guard?0!0&0#21| 

                     (bvand |goto_symex::guard?0!0&0#22| 

                      (bvand |goto_symex::guard?0!0&0#23| 

                       (bvand |goto_symex::guard?0!0&0#24| 

                        (bvand |goto_symex::guard?0!0&0#25| 

                         (bvand |goto_symex::guard?0!0&0#26| 

                          (bvand |goto_symex::guard?0!0&0#27| 

                           (bvand |goto_symex::guard?0!0&0#28| |goto_symex::guard?0!0&0#29|))))))))))))))))))))))))))) #b1))

(assert (= 

 (bvnot |goto_symex::guard?0!0&0#2|) #b1))

(assert (= 

 (bvnot |goto_symex::guard?0!0&0#1|) #b1))

(check-sat)

(exit)
